param n := 50;
param c := 150;
param w := 
1 143
2 136
3 132
4 132
5 129
6 120
7 120
8 114
9 113
10 112
11 112
12 111
13 107
14 105
15 98
16 93
17 92
18 90
19 87
20 85
21 83
22 71
23 70
24 65
25 65
26 63
27 61
28 55
29 53
30 51
31 50
32 46
33 45
34 43
35 34
36 33
37 33
38 29
39 26
40 24
41 23
42 17
43 14
44 13
45 12
46 7
47 3
48 3
49 1
50 1
;